experiment/data/hgs-res/Vrp-Set-P-n70/Vrp-Set-P-n70-hgs/0.hgs1.tour
Route #1: 3 44 24 49 56 23 63 16 51
Route #2: 68 62 22 64 42 41 43 1
Route #3: 6 33 2 30 4
Route #4: 28 61 21 69 36 47 48
Route #5: 29 5 37 60 20 15 57 13 54
Route #6: 67 34 46 52 27 45
Route #7: 8 19 59 14 53 35 7
Route #8: 11 66 65 38 58
Route #9: 17 40 9 39 12 26
Route #10: 32 50 18 55 25 31 10
Cost 829.933
